100
1000
132
132
132
131
130
130
130
130
129
129
129
128
127
127
127
127
126
126
126
125
125
124
124
124
123
123
123
123
122
121
121
121
121
120
120
120
120
119
119
119
118
118
118
118
117
117
116
115
115
114
113
113
113
111
110
110
109
109
109
109
108
108
107
106
106
106
106
105
104
104
103
103
102
100
99
99
98
98
98
98
96
96
96
96
95
95
94
94
93
93
93
91
91
90
90
90
90
90
90
90
